;(set-option :produce-unsat-cores true )
(set-logic ALL_SUPPORTED )
(declare-sort A$ 0 )
(declare-sort A_llist_a_llist_fun$ 0 )
(declare-sort A_llist$ 0)
(declare-fun lNil$ ()A_llist$)
(declare-fun lhd$ (A_llist$)A$)
(declare-fun ltl$ (A_llist$)A_llist$)
(declare-fun lCons$ (A$ A_llist$ )A_llist$)
(declare-fun xs$ ()A_llist$ )
(declare-fun ys$ ()A_llist$ )
(declare-fun lnull$ (A_llist$ )Bool )
(declare-fun fun_app$ (A_llist_a_llist_fun$ A_llist$ )A_llist$ )
(declare-fun lappend$ (A_llist$ )A_llist_a_llist_fun$ )
(declare-fun lfinite$ (A_llist$ )Bool )
(assert (! (not (lfinite$ (fun_app$ (lappend$ xs$ )ys$ ))):named a0 ))
(assert (! (lfinite$ xs$ ):named a1 ))
(assert (! (lfinite$ ys$ ):named a2 ))
(assert (! (and (lfinite$ xs$ )(lfinite$ ys$ )):named a3 ))
(assert (! (=> (=> (and (lfinite$ xs$ )(lfinite$ ys$ ))false )false ):named a4 ))
(assert (! (forall ((?v0 A_llist$ )(?v1 A_llist$ )(?v2 A_llist$ ))(= (fun_app$ (lappend$ (fun_app$ (lappend$ ?v0 )?v1 ))?v2 )(fun_app$ (lappend$ ?v0 )(fun_app$ (lappend$ ?v1 )?v2 )))):named a5 ))
(assert (! (= (lfinite$ lNil$ )true ):named a6 ))
(assert (! (forall ((?v0 A_llist$ ))(= (lfinite$ (ltl$ ?v0 ))(lfinite$ ?v0 ))):named a7 ))
(assert (! (forall ((?v0 A_llist$ ))(! (= (fun_app$ (lappend$ ?v0 )lNil$ )?v0 ):pattern ((lappend$ ?v0 )))):named a8 ))
(assert (! (forall ((?v0 A_llist$ ))(! (= (fun_app$ (lappend$ lNil$ )?v0 )?v0 ):pattern ((fun_app$ (lappend$ lNil$ )?v0 )))):named a9 ))
(assert (! (forall ((?v0 A$ )(?v1 A_llist$ ))(! (= (lfinite$ (lCons$ ?v0 ?v1 ))(lfinite$ ?v1 )):pattern ((lCons$ ?v0 ?v1 )))):named a10 ))
(assert (! (forall ((?v0 A$ )(?v1 A_llist$ ))(! (= (lfinite$ (lCons$ ?v0 ?v1 ))(lfinite$ ?v1 )):pattern ((lCons$ ?v0 ?v1 )))):named a11 ))
(assert (! (forall ((?v0 A$ )(?v1 A_llist$ )(?v2 A_llist$ ))(! (= (fun_app$ (lappend$ (lCons$ ?v0 ?v1 ))?v2 )(lCons$ ?v0 (fun_app$ (lappend$ ?v1 )?v2 ))):pattern ((fun_app$ (lappend$ (lCons$ ?v0 ?v1 ))?v2 )))):named a12 ))
(assert (! (lfinite$ lNil$ ):named a13 ))
(assert (! (forall ((?v0 A_llist$ )(?v1 A_llist$ ))(= (not (lnull$ (fun_app$ (lappend$ ?v0 )?v1 )))(or (not (lnull$ ?v0 ))(not (lnull$ ?v1 ))))):named a14 ))
(assert (! (forall ((?v0 A_llist$ )(?v1 A_llist$ ))(= (lnull$ (fun_app$ (lappend$ ?v0 )?v1 ))(and (lnull$ ?v0 )(lnull$ ?v1 )))):named a15 ))
(assert (! (forall ((?v0 A_llist$ )(?v1 A_llist$ ))(= (= lNil$ (fun_app$ (lappend$ ?v0 )?v1 ))(and (= ?v0 lNil$ )(= ?v1 lNil$ )))):named a16 ))
(assert (! (forall ((?v0 A_llist$ )(?v1 A_llist$ ))(= (= (fun_app$ (lappend$ ?v0 )?v1 )lNil$ )(and (= ?v0 lNil$ )(= ?v1 lNil$ )))):named a17 ))
(check-sat )
;(get-unsat-core )
